nN = 5;
nR = 20;
nH = 2;

a = [[11, 19, 24, 11, 11, 23, 15, 25, 17, 20, 15, 16, 10, 19, 23, 17, 14, 20, 18, 14], [13, 16, 20, 13, 24, 23, 24, 23, 12, 21, 17, 20, 22, 11, 25, 12, 10, 14, 17, 15], [16, 14, 13, 21, 19, 22, 13, 10, 16, 15, 22, 16, 24, 19, 23, 19, 24, 10, 23, 10], [17, 12, 20, 13, 21, 24, 14, 14, 14, 16, 12, 15, 24, 18, 13, 17, 18, 18, 12, 11], [19, 22, 23, 14, 11, 14, 18, 13, 25, 18, 11, 10, 21, 21, 25, 20, 11, 11, 13, 13]];
c = [[[0, 0, 0, 0, 0, 0, 0, 0, 0, 0, 0, 0, 0, 0, 0, 0, 0, 0, 0, 0], [47, 39, 36, 36, 30, 42, 37, 31, 43, 45, 47, 35, 40, 49, 30, 37, 48, 41, 43, 30], [40, 36, 38, 43, 32, 33, 50, 47, 43, 42, 33, 36, 41, 37, 33, 41, 49, 32, 37, 50], [50, 49, 42, 34, 47, 48, 35, 45, 46, 36, 49, 42, 31, 50, 38, 44, 49, 46, 44, 30], [42, 37, 30, 38, 34, 50, 49, 42, 38, 35, 49, 47, 46, 41, 34, 47, 43, 33, 48, 47]], [[0, 0, 0, 0, 0, 0, 0, 0, 0, 0, 0, 0, 0, 0, 0, 0, 0, 0, 0, 0], [0, 0, 0, 0, 0, 0, 0, 0, 0, 0, 0, 0, 0, 0, 0, 0, 0, 0, 0, 0], [37, 34, 34, 35, 45, 48, 36, 42, 38, 50, 48, 38, 37, 45, 44, 40, 50, 36, 33, 38], [42, 34, 42, 47, 36, 42, 34, 41, 30, 34, 47, 49, 41, 47, 32, 48, 45, 49, 49, 34], [43, 45, 37, 46, 32, 40, 43, 43, 49, 38, 43, 42, 44, 40, 33, 40, 36, 33, 34, 35]], [[0, 0, 0, 0, 0, 0, 0, 0, 0, 0, 0, 0, 0, 0, 0, 0, 0, 0, 0, 0], [0, 0, 0, 0, 0, 0, 0, 0, 0, 0, 0, 0, 0, 0, 0, 0, 0, 0, 0, 0], [0, 0, 0, 0, 0, 0, 0, 0, 0, 0, 0, 0, 0, 0, 0, 0, 0, 0, 0, 0], [36, 41, 38, 35, 34, 31, 40, 45, 43, 35, 47, 30, 41, 31, 44, 34, 45, 48, 33, 35], [41, 44, 45, 39, 37, 30, 48, 42, 31, 31, 41, 43, 43, 50, 36, 43, 38, 30, 41, 43]], [[0, 0, 0, 0, 0, 0, 0, 0, 0, 0, 0, 0, 0, 0, 0, 0, 0, 0, 0, 0], [0, 0, 0, 0, 0, 0, 0, 0, 0, 0, 0, 0, 0, 0, 0, 0, 0, 0, 0, 0], [0, 0, 0, 0, 0, 0, 0, 0, 0, 0, 0, 0, 0, 0, 0, 0, 0, 0, 0, 0], [0, 0, 0, 0, 0, 0, 0, 0, 0, 0, 0, 0, 0, 0, 0, 0, 0, 0, 0, 0], [39, 44, 47, 43, 46, 37, 48, 40, 39, 31, 49, 43, 40, 39, 34, 42, 30, 50, 42, 40]], [[0, 0, 0, 0, 0, 0, 0, 0, 0, 0, 0, 0, 0, 0, 0, 0, 0, 0, 0, 0], [0, 0, 0, 0, 0, 0, 0, 0, 0, 0, 0, 0, 0, 0, 0, 0, 0, 0, 0, 0], [0, 0, 0, 0, 0, 0, 0, 0, 0, 0, 0, 0, 0, 0, 0, 0, 0, 0, 0, 0], [0, 0, 0, 0, 0, 0, 0, 0, 0, 0, 0, 0, 0, 0, 0, 0, 0, 0, 0, 0], [0, 0, 0, 0, 0, 0, 0, 0, 0, 0, 0, 0, 0, 0, 0, 0, 0, 0, 0, 0]]];

q = [[[18, 124], [6, 125], [5, 124], [16, 113], [21, 115], [16, 114], [19, 124], [23, 125], [16, 125], [20, 112], [14, 120], [18, 123], [11, 106], [20, 105], [5, 118], [13, 105], [7, 121], [10, 110], [5, 115], [13, 116]], [[12, 116], [16, 111], [21, 119], [10, 105], [17, 108], [7, 105], [19, 122], [8, 124], [24, 110], [19, 111], [6, 108], [18, 121], [24, 112], [12, 113], [8, 125], [18, 116], [22, 112], [25, 109], [12, 118], [18, 125]], [[7, 107], [22, 106], [23, 121], [12, 119], [23, 121], [18, 110], [6, 124], [23, 119], [14, 122], [8, 113], [16, 119], [10, 119], [20, 117], [12, 123], [14, 114], [13, 109], [13, 114], [11, 114], [19, 109], [15, 107]], [[6, 115], [23, 119], [7, 115], [10, 125], [13, 111], [14, 122], [11, 106], [17, 111], [10, 119], [14, 108], [22, 118], [9, 118], [18, 121], [7, 110], [19, 111], [15, 113], [19, 115], [5, 113], [24, 122], [13, 115]], [[16, 120], [10, 118], [19, 107], [14, 110], [7, 124], [18, 122], [25, 107], [14, 114], [8, 109], [8, 106], [7, 110], [8, 113], [22, 123], [24, 113], [16, 114], [18, 105], [16, 120], [11, 110], [8, 121], [9, 115]]];
Q = [[45, 375], [51, 367], [48, 370], [45, 370], [46, 365]];
